(set-info :smt-lib-version 2.6)
(set-logic QF_S)
(set-info :source |
Generated by: Murphy Berzish, Mitja Kulczynski, Federico Mora, Florin Manea, Joel Day, Dirk Nowotka, Vijay Ganesh, Zhengyang Lu
Generated on: 2020-10-01
Description: Translated from a collection of real-world regex queries, AutomataArk, collected by Loris D’Antoni and Fang Wang: https://github.com/lorisdanto/automatark
Application: Evaluate solvers on real-world regex queries
Target solver: Z3str3RE, CVC4, OSTRICH, Z3seq, Z3str3, Z3-Trau
Publications: Berzish, M., Kulczynski, M., Mora, F., Manea, F., Day, J. D., Nowotka, D., & Ganesh, V. (2021, July). An SMT solver for regular expressions and linear arithmetic over string length. In CAV 2021.
|)
(set-info :license "https://creativecommons.org/licenses/by/4.0/")
(set-info :category "industrial")
(set-info :status sat)

(declare-const X String)
(assert (not (str.in_re X (re.++ (re.opt (str.to_re "+39")) (re.opt (re.union (str.to_re " ") (str.to_re "\u{9}") (str.to_re "\u{a}") (str.to_re "\u{c}") (str.to_re "\u{d}"))) (re.union (str.to_re "313") (re.++ (str.to_re "32") (re.union (str.to_re "0") (str.to_re "3") (str.to_re "7") (str.to_re "8") (str.to_re "9"))) (re.++ (str.to_re "33") (re.union (str.to_re "0") (str.to_re "1") (str.to_re "3") (str.to_re "4") (str.to_re "5") (str.to_re "6") (str.to_re "7") (str.to_re "8") (str.to_re "9"))) (re.++ (str.to_re "34") (re.union (str.to_re "0") (str.to_re "2") (str.to_re "5") (str.to_re "6") (str.to_re "7") (str.to_re "8") (str.to_re "9"))) (re.++ (str.to_re "36") (re.union (str.to_re "0") (str.to_re "3") (str.to_re "6") (str.to_re "8"))) (re.++ (str.to_re "37") (re.union (str.to_re "0") (str.to_re "3") (str.to_re "7"))) (re.++ (str.to_re "38") (re.union (str.to_re "0") (str.to_re "3") (str.to_re "8") (str.to_re "9"))) (re.++ (str.to_re "39") (re.union (str.to_re "0") (str.to_re "1") (str.to_re "2") (str.to_re "3")))) (re.opt (re.union (str.to_re "-") (str.to_re " ") (str.to_re "\u{9}") (str.to_re "\u{a}") (str.to_re "\u{c}") (str.to_re "\u{d}"))) ((_ re.loop 7 7) (re.range "0" "9")) (str.to_re "\u{a}")))))
(assert (not (str.in_re X (re.++ (re.opt (str.to_re "1")) (re.opt (str.to_re "-")) (re.opt (str.to_re "(")) (re.* (re.union (str.to_re " ") (str.to_re "\u{9}") (str.to_re "\u{a}") (str.to_re "\u{c}") (str.to_re "\u{d}"))) ((_ re.loop 3 3) (re.range "0" "9")) (re.* (re.union (str.to_re " ") (str.to_re "\u{9}") (str.to_re "\u{a}") (str.to_re "\u{c}") (str.to_re "\u{d}"))) (re.opt (str.to_re ")")) (re.* (re.union (str.to_re " ") (str.to_re "\u{9}") (str.to_re "\u{a}") (str.to_re "\u{c}") (str.to_re "\u{d}"))) (re.opt (str.to_re "-")) ((_ re.loop 3 3) (re.range "0" "9")) (re.* (re.union (str.to_re " ") (str.to_re "\u{9}") (str.to_re "\u{a}") (str.to_re "\u{c}") (str.to_re "\u{d}"))) (re.opt (str.to_re "-")) (re.* (re.union (str.to_re " ") (str.to_re "\u{9}") (str.to_re "\u{a}") (str.to_re "\u{c}") (str.to_re "\u{d}"))) ((_ re.loop 4 4) (re.range "0" "9")) (re.* (re.union (str.to_re " ") (str.to_re "\u{9}") (str.to_re "\u{a}") (str.to_re "\u{c}") (str.to_re "\u{d}"))) (str.to_re "\u{a}")))))
(assert (not (str.in_re X (re.++ ((_ re.loop 1 1) (re.union (str.to_re "A") (str.to_re "B") (str.to_re "C") (str.to_re "E") (str.to_re "G") (str.to_re "H") (str.to_re "J") (str.to_re "K") (str.to_re "L") (str.to_re "M") (str.to_re "N") (str.to_re "P") (str.to_re "R") (str.to_re "S") (str.to_re "T") (str.to_re "V") (str.to_re "X") (str.to_re "Y"))) ((_ re.loop 1 1) (re.range "0" "9")) ((_ re.loop 1 1) (re.range "A" "Z")) (re.* (str.to_re " ")) ((_ re.loop 1 1) (re.range "0" "9")) ((_ re.loop 1 1) (re.range "A" "Z")) ((_ re.loop 1 1) (re.range "0" "9")) (str.to_re "\u{a}")))))
(assert (not (str.in_re X (str.to_re "www.trackhits.ccUser-Agent:iz=LOGSupremeResult\u{a}"))))
(assert (str.in_re X (re.++ (re.+ (re.range "0" "9")) (re.* (re.++ (str.to_re ",") (re.+ (re.range "0" "9")))) (str.to_re "\u{a}"))))
(check-sat)

(exit)
